
******************************************************************************
This program contains Ipopt, a library for large-scale nonlinear optimization.
 Ipopt is released as open source code under the Eclipse Public License (EPL).
         For more information visit http://projects.coin-or.org/Ipopt

This version of Ipopt was compiled from source code available at
    https://github.com/IDAES/Ipopt as part of the Institute for the Design of
    Advanced Energy Systems Process Systems Engineering Framework (IDAES PSE
    Framework) Copyright (c) 2018-2019. See https://github.com/IDAES/idaes-pse.

This version of Ipopt was compiled using HSL, a collection of Fortran codes
    for large-scale scientific computation.  All technical papers, sales and
    publicity material resulting from use of the HSL codes within IPOPT must
    contain the following acknowledgement:
        HSL, a collection of Fortran codes for large-scale scientific
        computation. See http://www.hsl.rl.ac.uk.
******************************************************************************

This is Ipopt version 3.13.2, running with linear solver ma27.

Number of nonzeros in equality constraint Jacobian...:     1126
Number of nonzeros in inequality constraint Jacobian.:        0
Number of nonzeros in Lagrangian Hessian.............:     1431

Total number of variables............................:      432
                     variables with only lower bounds:      108
                variables with lower and upper bounds:      270
                     variables with only upper bounds:        0
Total number of equality constraints.................:      428
Total number of inequality constraints...............:        0
        inequality constraints with only lower bounds:        0
   inequality constraints with lower and upper bounds:        0
        inequality constraints with only upper bounds:        0

iter    objective    inf_pr   inf_du lg(mu)  ||d||  lg(rg) alpha_du alpha_pr  ls
   0  0.0000000e+00 4.71e-01 3.24e-14  -1.0 0.00e+00    -  0.00e+00 0.00e+00   0
   1  2.1469988e+00 3.73e-01 3.83e+05  -1.0 6.54e+05    -  1.38e-01 2.47e-01h  3
   2  1.6774819e+01 9.42e-02 2.70e+06  -1.0 5.26e+05    -  6.17e-01 9.90e-01h  1
   3  1.8830229e+01 3.45e-02 1.51e+06  -1.0 1.09e+05    -  8.23e-01 9.90e-01h  1
   4  1.9256017e+01 4.66e-04 2.86e+05  -1.0 2.66e+04  -4.0 9.65e-01 9.90e-01h  1
   5  1.9271066e+01 4.84e-06 1.85e+04  -1.0 1.98e+03  -4.5 9.89e-01 9.90e-01h  1
   6  1.9271118e+01 4.84e-08 4.89e+03  -1.0 1.85e+01  -5.0 9.90e-01 9.90e-01h  1
   7  1.9270512e+01 1.71e-10 1.13e+02  -3.8 9.81e+00  -5.4 1.00e+00 1.00e+00h  1
In iteration 7, 27 Slacks too small, adjusting variable bounds
   8  4.2500561e+00 3.81e-01 2.74e+09  -5.7 5.43e+05    -  8.32e-01 1.00e+00f  1
   9  5.6135023e+00 3.59e-01 4.75e+09  -5.7 8.94e+05    -  2.32e-01 7.00e-02h  4
iter    objective    inf_pr   inf_du lg(mu)  ||d||  lg(rg) alpha_du alpha_pr  ls
  10  2.8955014e+00 4.33e+00 2.71e+09  -5.7 1.93e+05  -5.9 7.40e-01 1.00e+00f  1
  11  3.5884947e+00 3.25e+00 8.73e+07  -5.7 3.83e+05  -6.4 9.68e-01 2.50e-01h  3
  12  5.3933326e+00 2.54e-02 1.40e+05  -5.7 7.79e+04  -6.9 1.00e+00 1.00e+00h  1
  13  5.2577044e+00 1.18e-03 7.41e+03  -5.7 4.41e+03  -6.4 1.00e+00 1.00e+00h  1
  14  5.2575476e+00 1.13e-06 2.49e+01  -5.7 1.33e+02  -6.9 1.00e+00 1.00e+00h  1
  15  3.9825263e+00 2.76e-02 1.45e+00  -5.7 1.11e+05    -  1.00e+00 1.00e+00f  1
  16  4.2507278e+00 3.10e-04 4.75e-02  -5.7 2.37e+04    -  1.00e+00 1.00e+00h  1
  17  4.2570073e+00 3.79e-07 2.77e-05  -5.7 1.86e+02    -  1.00e+00 1.00e+00h  1
  18  4.2570084e+00 1.55e-10 1.92e-07  -8.6 4.84e+00    -  1.00e+00 1.00e+00h  1

Number of Iterations....: 18

                                   (scaled)                 (unscaled)
Objective...............:   4.2570084281161158e+00    4.2570084281161158e+00
Dual infeasibility......:   1.9231811165809631e-07    1.9231811165809631e-07
Constraint violation....:   1.5515805307231290e-10    1.5515805307231290e-10
Complementarity.........:   2.6430793627095302e-09    2.6430793627095302e-09
Overall NLP error.......:   1.8454740749240853e-10    1.9231811165809631e-07


Number of objective function evaluations             = 28
Number of objective gradient evaluations             = 19
Number of equality constraint evaluations            = 28
Number of inequality constraint evaluations          = 0
Number of equality constraint Jacobian evaluations   = 19
Number of inequality constraint Jacobian evaluations = 0
Number of Lagrangian Hessian evaluations             = 18
Total CPU secs in IPOPT (w/o function evaluations)   =      0.036
Total CPU secs in NLP function evaluations           =      0.334

EXIT: Optimal Solution Found.
